55
Lattice="20.000000 0.000000 0.000000 0.000000 20.000000 0.000000 0.000000 0.000000 20.000000" Properties=species:S:1:pos:R:3 pbc="F F F"
Au 7.120000 7.120000 10.000000
Au 7.120000 8.560000 8.560000
Au 7.120000 8.560000 11.440000
Au 7.120000 10.000000 7.120000
Au 7.120000 10.000000 10.000000
Au 7.120000 10.000000 12.880000
Au 7.120000 11.440000 8.560000
Au 7.120000 11.440000 11.440000
Au 7.120000 12.880000 10.000000
Au 8.560000 7.120000 8.560000
Au 8.560000 7.120000 11.440000
Au 8.560000 8.560000 7.120000
Au 8.560000 8.560000 10.000000
Au 8.560000 8.560000 12.880000
Au 8.560000 10.000000 8.560000
Au 8.560000 10.000000 11.440000
Au 8.560000 11.440000 7.120000
Au 8.560000 11.440000 10.000000
Au 8.560000 11.440000 12.880000
Au 8.560000 12.880000 8.560000
Au 8.560000 12.880000 11.440000
Au 10.000000 7.120000 7.120000
Au 10.000000 7.120000 10.000000
Au 10.000000 7.120000 12.880000
Au 10.000000 8.560000 8.560000
Au 10.000000 8.560000 11.440000
Au 10.000000 10.000000 7.120000
Au 10.000000 10.000000 10.000000
Au 10.000000 10.000000 12.880000
Au 10.000000 11.440000 8.560000
Au 10.000000 11.440000 11.440000
Au 10.000000 12.880000 7.120000
Au 10.000000 12.880000 10.000000
Au 10.000000 12.880000 12.880000
Au 11.440000 7.120000 8.560000
Au 11.440000 7.120000 11.440000
Au 11.440000 8.560000 7.120000
Au 11.440000 8.560000 10.000000
Au 11.440000 8.560000 12.880000
Au 11.440000 10.000000 8.560000
Au 11.440000 10.000000 11.440000
Au 11.440000 11.440000 7.120000
Au 11.440000 11.440000 10.000000
Au 11.440000 11.440000 12.880000
Au 11.440000 12.880000 8.560000
Au 11.440000 12.880000 11.440000
Au 12.880000 7.120000 10.000000
Au 12.880000 8.560000 8.560000
Au 12.880000 8.560000 11.440000
Au 12.880000 10.000000 7.120000
Au 12.880000 10.000000 10.000000
Au 12.880000 10.000000 12.880000
Au 12.880000 11.440000 8.560000
Au 12.880000 11.440000 11.440000
Au 12.880000 12.880000 10.000000
