29
Lattice="8.325000 0.000000 0.000000 4.162500 7.209661 0.000000 0.000000 0.000000 22.000000" Properties=species:S:1:pos:R:3 pbc="T T F"
Pt 0.000000 0.000000 5.000000
Pt 1.387500 2.403220 5.000000
Pt 2.775000 4.806441 5.000000
Pt 2.775000 0.000000 5.000000
Pt 4.162500 2.403220 5.000000
Pt 5.550000 4.806441 5.000000
Pt 5.550000 0.000000 5.000000
Pt 6.937500 2.403220 5.000000
Pt 8.325000 4.806441 5.000000
Pt 1.387500 0.801073 7.265000
Pt 2.775000 3.204294 7.265000
Pt 4.162500 5.607514 7.265000
Pt 4.162500 0.801073 7.265000
Pt 5.550000 3.204294 7.265000
Pt 6.937500 5.607514 7.265000
Pt 6.937500 0.801073 7.265000
Pt 8.325000 3.204294 7.265000
Pt 9.712500 5.607514 7.265000
Pt 0.000000 1.602147 9.530000
Pt 1.387500 4.005367 9.530000
Pt 2.775000 6.408588 9.530000
Pt 2.775000 1.602147 9.530000
Pt 4.162500 4.005367 9.530000
Pt 5.550000 6.408588 9.530000
Pt 5.550000 1.602147 9.530000
Pt 6.937500 4.005367 9.530000
Pt 8.325000 6.408588 9.530000
C 4.162500 2.403220 11.380000
O 4.162500 2.403220 12.530000
