48
Lattice="10.224000 0.000000 0.000000 5.112000 8.854244 0.000000 0.000000 0.000000 20.000000" Properties=species:S:1:pos:R:3 pbc="T T F"
Cu 0.000000 0.000000 5.000000
Cu 1.278000 2.213561 5.000000
Cu 2.556000 4.427122 5.000000
Cu 3.834000 6.640683 5.000000
Cu 2.556000 0.000000 5.000000
Cu 3.834000 2.213561 5.000000
Cu 5.112000 4.427122 5.000000
Cu 6.390000 6.640683 5.000000
Cu 5.112000 0.000000 5.000000
Cu 6.390000 2.213561 5.000000
Cu 7.668000 4.427122 5.000000
Cu 8.946000 6.640683 5.000000
Cu 7.668000 0.000000 5.000000
Cu 8.946000 2.213561 5.000000
Cu 10.224000 4.427122 5.000000
Cu 11.502000 6.640683 5.000000
Cu 1.278000 0.737854 7.087000
Cu 2.556000 2.951415 7.087000
Cu 3.834000 5.164976 7.087000
Cu 5.112000 7.378536 7.087000
Cu 3.834000 0.737854 7.087000
Cu 5.112000 2.951415 7.087000
Cu 6.390000 5.164976 7.087000
Cu 7.668000 7.378536 7.087000
Cu 6.390000 0.737854 7.087000
Cu 7.668000 2.951415 7.087000
Cu 8.946000 5.164976 7.087000
Cu 10.224000 7.378536 7.087000
Cu 8.946000 0.737854 7.087000
Cu 10.224000 2.951415 7.087000
Cu 11.502000 5.164976 7.087000
Cu 12.780000 7.378536 7.087000
Cu 0.000000 1.475707 9.174000
Cu 1.278000 3.689268 9.174000
Cu 2.556000 5.902829 9.174000
Cu 3.834000 8.116390 9.174000
Cu 2.556000 1.475707 9.174000
Cu 3.834000 3.689268 9.174000
Cu 5.112000 5.902829 9.174000
Cu 6.390000 8.116390 9.174000
Cu 5.112000 1.475707 9.174000
Cu 6.390000 3.689268 9.174000
Cu 7.668000 5.902829 9.174000
Cu 8.946000 8.116390 9.174000
Cu 7.668000 1.475707 9.174000
Cu 8.946000 3.689268 9.174000
Cu 10.224000 5.902829 9.174000
Cu 11.502000 8.116390 9.174000
